p cnf 21 9
e 1 2 3 0
a 4 5 6 7 0
e 8 0
a 9 0
e 10 11 12 13 14 0
a 15 16 17 0
e 18 0
a 19 20 21 0
7 -21 -20 0
9 -11 0
9 -7 16 -6 -21 0
-19 -3 17 0
-7 16 10 0
3 21 8 0
18 -4 2 0
2 -20 8 -4 -19 0
-18 -2 14 0
